(set-info :source  loris-7.ddns.comp.nus.edu.sg/~project/hip/) 
;Variables declarations
(declare-fun bhr_13509 () Int)
(declare-fun nr_13508 () Int)
(declare-fun nb () Int)
(declare-fun bhl_13506 () Int)
(declare-fun nl_13505 () Int)
(declare-fun na () Int)
(declare-fun r_13507 () Int)
(declare-fun l_13504 () Int)
(declare-fun v_13503 () Int)
(declare-fun res () Int)
(declare-fun v_node_232_3952_primed () Int)
(declare-fun v_int_232_13436 () Int)
(declare-fun v_int_230_13434 () Int)
(declare-fun v_int_230_13433 () Int)
(declare-fun flted_224_13430 () Int)
(declare-fun flted_224_13431 () Int)
(declare-fun flted_224_13432 () Int)
(declare-fun c () Int)
(declare-fun b_primed () Int)
(declare-fun b () Int)
(declare-fun a_primed () Int)
(declare-fun a () Int)
(declare-fun v_13441 () Int)
(declare-fun v_int_232_13435 () Int)
(declare-fun l_13442 () Int)
(declare-fun tmp_13437 () Int)
(declare-fun r_13445 () Int)
(declare-fun c_primed () Int)
(declare-fun nr_13446 () Int)
(declare-fun nc () Int)
(declare-fun bhr_13447 () Int)
(declare-fun ha () Int)
;Relations declarations
;Axioms assertions
;Antecedent
(assert (= bhr_13509 ha))
(assert (= nr_13508 nb))
(assert (= bhl_13506 ha))
(assert (= nl_13505 na))
(assert (= r_13507 b_primed))
(assert (= l_13504 a_primed))
(assert (= v_13503 v_int_230_13433))
(assert (= res v_node_232_3952_primed))
(assert (= v_int_232_13436 0))
(assert (= v_int_232_13435 0))
(assert (= v_int_230_13434 1))
(assert (= v_int_230_13433 0))
(assert (= flted_224_13430 0))
(assert (= flted_224_13431 0))
(assert (= flted_224_13432 0))
(assert (= c_primed c))
(assert (= b_primed b))
(assert (= a_primed a))
(assert (= v_13441 v_int_232_13435))
(assert (= l_13442 tmp_13437))
(assert (= r_13445 c_primed))
(assert (= nr_13446 nc))
(assert (= bhr_13447 ha))
;Negation of Consequence
(assert (not false))
(check-sat)